r_100_25_7
100
  0   0  72  73   0   0  41   0  33  92   0   0   4   0   0   0   0   0   0   0   0   0   0  62   0   0   0   0   0   0   0   0  69   0   0   0   0   0   0  50   0   0   0   0   0  26   0   0   0   7   0   0   0   0   0   0  39  71  23  61   0  39  18   0   0   0  33  12   0   0   0   0   0   0  78   0   0  95   0   0   0   0   0  50   0  47   0   0   0  77   0   0   0   0   0  52   0   0   0  84 
 31   0   0  98   0   0   6  74   0   0   0   0   0  13   0   0   0  83   0  41   0   0   0   0  69   0   0   7   0  39   0   0   0  76   0   0   0   0   0   0  81   0   0  61   0   0   0   0   0  82   0   5   0  93   0   0   0   0   0   0   0   0  10   0   0  15   0  59   0   0  88   0   0   0   0  70   0   0   0  38   0   0  89   0  51   0   0   2   0   0   0   0  68  88  90   0   0   0   0 
  0   0   0   0   0  97   0   0   0   0   0   0  29   0   0  50  28   0   0   0   0   0   0   0   0   0   0   0   0   0   0  72  88   0   0   6  50   0   0   0  12   0   0   0   0   0  68   0   0   0   0   0   0  83   4  81   0   0   0   0  47   0  35   0  56   7   0  28   0   0   0   0   0  27  88  78   0  40   0   0  49   0  81   0  38   0   0   0   0   0   0   0   0   0   0   0   0   0 
  0   0   0   7  93  37   0   0   0   0   0  17   0   0   0   2   0   0   0   0   0   0   0   0   0   0   0  72   0   0  29   0   0  21   0   0   0   0   0   0   0   0   0   1   0   0  91   0   0   0   0   0   0   0  82  26  90  78  74   0   0   0  16   0   0  31   0   0   0   4   0  89   0   0   5  20  62   0  56  16   0   0  56   0   0   0   0  49   8   6  91   0  86   0   9   9   0 
  0   0   0   0   0   0   0   0  50   4   0   0   0   0   0   0   0   0   0   0   0  44   0   0   0   0   0   0   0   0   0   0  17   0   0   0  43   0   0   0   0   0   0   0   0   0  22  56   0  63   0   0   0   0  33  70   0   0  10  23   0   0  52  54   0   0   0   0  52   0   0   0   0   0   0  36   0  87   0  54  83   0   0  65  62   0  46   0   0   0   0   0  20   0   0   0 
  0   0   0   0   0   0   0   0   0   0   0   1   0  54   0   0   0   0   0   7  83   0  18   0   0   0  69   0   0   0   0   0   0   0   0   0   0   0  86   0   0   0  31   0  74   0   0   0   0  69   0   0  89   0   9   0   0   0   0   0   0  45  48   0  71  47   0   0   0   0  39   0   0   0   0   0   0   0   0   0   0   0   0   0  30   0   0   0   0   0  94  19   0   0  93 
  0   0   0  86   0   0   0   0   0  92   0   0  39  21   0   0   0   0  70   0   0   0   0   0  17   0  57   0   0   0   0   0   0  95   0   0  77   0   0   0   0   0   0  74   0   0   0   0  38   0   0  85   0   0   0   0   0   3  22   0   3   0  72   0  31   0   0   0   0   0  49  82   0   0   0  44   0  31  12  33   0   0  12   0   0  86   0   0   0   0   0  12  79   0 
 23   0   0   0   0  48   0  47   0  31   0   0  80  89   0   0  46  83   0   0   0   0   0   0   0  15   0   0  47   0   0   0   0  20   0   0  76   0   9   0   0  77   0  48   0   0   0   0  26   0   0   0   0   0  75   0   0   0   0   0  23  14   0   5   0   0   0   0   0   0   0   0   0   0   0   0   0  74   0   0  66   0   0   0   0   0   0   2  77  54   0  28   0 
  0   0   0   0   7   0  21   0   0   0  71   0   0   0  72   0  68   0   0   0  78   0   0  66   0   0   0   0   0   0   0  66   0   0  32   0   0   0  28   0   0  25   0   0  27   0   0   0   0  91  46  47   0   0   0   0   0   0   0  13   0   0   0  37   0   0  95   0   0  67   9   0   0   0  58  28   0  57   0   0   0  15   0  50  68   0   0   0   0   0   0  43 
  0  15   0   0   0  84   0  29   0   0   0  36   0  46   0  32   0   0   0   0  96   0   0   0   0   0   0   0  59   0   0   0   0   1   0   0  89   0   0   0   0   0   0   0   0   0  78  59  78   0   0   0   0  35   0   0   0   0   0  29  64   0   0   0   0   0   0   0  56   0   0   0  41  94   0   0   0  75   0  83  34   0   0   0   0   0   0   0   0   0  20 
  0  67  18   0   0   0   0   0   0  79   0   0  33   0   0  47  62  72  40   0   0   0   0   0   0   0   0  21   0   0   0   0  10   0  67   0   0  82  14   0  25  26  26   0   0   0   0   0   0   0   0   0   0   0  49  22  89  66   0   0   0   0   0   0   0   2   0   0  68   0   0  39   0   0  62   7   0   0   0   0   0   0   0   0   0   0  79   0   0  21 
  0   0   0   0   0   0   0   0  88   0  94  23   0   0   0   0   0   0   0   0  81   0   0  87   0  95   0   0  30   0   0   0   0   0  32   0  74   0   0   0  24   0   0   0   0  74  65   0   0   0  19   0   0  97   0   0   0   0   0   0  64  40   0  12   0   0   0 100   0  19   0   0  68   0   0  91  24   0   0  99   0   0   0   0   0   0   0   0   0 
  0   0   0   0   0  91   0   0   0  56   0  56   0  23  52  11   0   0   0   0  29   0   0   0   0   0   0   0   0   0   0   0   0   0  16   0   0   0  80   0   0   0   0   0   0   0   0  52   0   0   0   0   0   0   0   0   0   0   0   0   0   0   0   0   0   0  24   0   0   0   0   0   0   0   0   0  82  96   0   0  85   0   0   0  35   0   0   0 
  0  71   0   0   0  69   0   0   0  12   0   0   1  95   0   0   0  82  27   0   0   0  32   0  40   0  40   0   0  72   0   0   0   0  22   0   0   0   0   0  14   0   8   0   0   0   0  34  85  47   0   0   0  71   0  42  94  18   0  11   0   0   0   0   0   0   0   0   0   0   0   0  20   0   0   0  22   0   0   0   0  43   0  94   0  91   0 
 56  39   0   0   0   0  88   0   0   0   0   0   0  33   0  52   0   0   0   0   0  22   0   0   0   0   0   0   0   0   0   0   0   0   0   0   0   0   0   0  20   0  23   0   0  66   0   0   0   0   0   0   0  30   0   0  18   0   0   0   0   0   0   0   0   0   0  98   0   0   0   0   0   0  43  97   0   0  35   0   0   0  43   0   0   0 
  0   0   0   0   0   0  83   0   0   0   0  88  85   0   0   0   0   0   0   0  49   0   0   0   6   0   0   0   0   0  37   0   0   0   0   0   0   0   0  88   0  95   0   0   0   0  32   0   0   0   0  90   0   0   0   8   0   0  51  35   0  79   0  74   0   0   0   0   0   0   0  19   0   0   0   0  92   0   0   0   0   0   0   0  41 
  0   0  59   0   0   0   2   0   0   0   0  61   0   0   0   0   2  15  30   0   0   0   0  91  85   0   0   0   0   0  32  16   0   0   0  69   0   0   0  64  22   0  60   0   0   0   0   0   3   0  99   0   0   0   0   0   0   0   0   9   0   0   0   0   0   0   0   0   0   0  32   0   0   0   0  85   0   0   0  78   0   0   0   0 
  0   0  81   0   0   0  61   0   0  68   0   0   0   0  62   0  42   0   0   0   0   0   0   0   0  33   0   0   0   0   0  93   0   0  35   0   0  98   0  67   0   0  63  50  32   0  36   0  12   0   0  79  29   0   0   0   0   0   0   0   0   0   0  62  79   0   0   0  41   0   0   0   0   0   0   0   0   0   0  27  10   0  92 
 22   0  72   0  71  71   0   0   0  78  25   0   0  86  97  51   0   0   0   0   0   0   0   0   0   0   0  53   0   0   0   0   0  64  31   0   0   0   0   0  70   0   0   4  27   0   0   0   0   0   0  56   0   0  91  10   0   0  11   0   0   0   0   0   0   0   0   0  95  83  19   0  10  40  78   0  71   0   0   0   0   0 
 52   0   0   0   0   0   0  53   0   3   0   0   0  18   0   0   0   0  67  19   0  10   0   0   0  85   0   0  92   0  77  29   0   0   0  93   0   0   0   0   0   0   0   0  10   0   0   0   0  99   0   3   0   0  89   0   0  27   0  24   0   0   0  19   0   0   0   0  35   0   0   0   0   0   0   0   0  17  85   0  24 
  0  89   0   0   0   0   0   0   0   0   0   0   0   0   0  50  91   0   0   0  57   0   0   0   0   0   0  54   0  90   0   0   0   0   0   0   0  56  32  27   0   0   0   0   0  56   0  34   0   0   0   0   0   0   0   0   0   0   0   0   0  77   0   0  22   0  51   0   0   0   0  61   0   0  14   0   0   0   0   0 
  0   0   0   0   0   0   0   0   0  94   0   0   0  57   0  26   0   0   0   0   0   0   0   0  23   0  69   0  16   0   0   0   0   0   0   0   0   0   0   0   0  97  85   0  91   0   0  82   0  52   0   0   0  48  44   0  85   0   0  58  54   0   0  30   0   0  34   0  77  27   0  13   0  44  65   7   0   0   0 
  0   0   0   0   0   0   0   0   0   0  49   0  11   0   0   0   0  18   0  20   0   0   0  72  43   0   0  53 100   0   0   0   0  70   0  97   0   0   0   0   0   0   0   0   0  50   0   0   0   0  90  59  14   0   0   0  84   0  24   0   0   0   0   0   0   0   0   0   0   4   0   0   0   0  30   0   0  74 
 58   0   0   0   0   0   0   0   0   0   0   0   0   0  94   3  96   0   0  30   0  80   0   0   0   0   0  56   0   0   0   0   0   0   0  79   0   0   0   0   0  25  47   0   0   0   0   0 100  27   0  36   0   0   0   0   0   0  18   0   0  90   0  98   0   0  78   0  31   0   0   0   0   6   0   0   0 
 36   0  42  52   2  81   0   0   0   0   0  56  56   0   0   0   0   0  36   0   0   0   0   0  62   0  52  29   0   0   0   0  80  32   0   0   0   0   0   7  67   0  93   0   0   0   0   0   0   0   0   0   0   0   0   0   0  93   0  10   0   0   0  66   0   0   0   0   0   0   0   0   0   0  67   0 
  0   0   0   0   0   0   0  78   0   0   0   0  86   0   0  66   0   0   0   0   0   0  88   0  15   0  94  12   0   0  76   0  17   0   0   0   0   0   0   0   0  64  58   0   0   0   0   0   0   0  17   0   0  25  59   0   0   0  25  48   0   0   0   0   0   0   0   0   0   0   0   0   0  17  64 
  0  78   0  70   0   0   0   0   0   0   0   0   0   0   0   0   0   0   0   0   0   0   0   0  35  41   0  78   0   0   0   0   0   0   0   0   0   0   0   0   8   0   0   0   0   0   0  96  23   0  82   0  45   0   0   0   0   0   0  80   0   0   0   0   0   0   0   0  30   0   0  65   0   0 
  0   0   0   8   0  72   0   0   0   0   0   0   0   0   0   0   0   0   0   0   0   0  43  77   0   0  16   0   0   0   0   0  93  78   0  34  74  19   0   0   0   0   0   0   0   0   0   0   0   0   0  60   0   0   0  16   0   0   0   0   0   0   0  62   0  36   0   0   0   0   0   0   0 
  0  34   0   0   0   0  69   0  43   0   0  62   0   0   0  69  53   0   0   0  23   0  16   0   0   0   0   0  43   0   2  44   0   0   0   0   0  17   0   0   0   0  41   0   0  98   0   0   0  59  63   0  83   0  31   0  13   0  97  85   0  40   0   0   0   0   0   0   0   0   0   0 
  0   0   0   0  69  42   0   0  46  53  63  50   0   0   0  34  84  42  32  66   5   0  57   0   0   0   0  61   0   0   0   0   0   0  28  80   0   0   0  60   0   0  60   0   0  96  34   0   0   0   0   0   0   0   0   0   0   0   0  27  76   0   0   0   0   0   0   0  55  57   0 
  0   0   0   0   0   0   0  32   0   0  12   0   0   0   0   0   0   0  54   0   0   0   0  18   0   0   0  29   0  91   0   0   0   0   0  15   0   0   0   0   0   0  24   0  57   0  47   0  22   0   0   0   0   0  50   0   0   0   0   0   0   0   0   0  68   0   0   0   0   0 
  0   0   0  31   0   0   0   0   0   0   0  75   0   0   0  91   0   0   0   0  86  47   0  51   0   0   0  43  44  21   0   0  78   0   0   0   0   0   0   0  56   0   0  42   0  57   0   0   0   0   0   0   0   0   0   0  52  85   0   0   0  20   0  16   0   6   0   0   0 
  0  64   0   0  23  10   0   0   0   0  50  32   0  80  31   0  12   0  86   0   0  96   0   0   0   0   0   0  76   0   0   0   0   0   0   0  88   0   0   0   0   5   0   0   0   0   0   0  18   0   4   0   0  59  28  90   0   0   0   0   0   0   0  64   0  35   0   0 
  0   0  78   0  18   0   5   0   0   0   0  88  70   0  16   0   0   0  78  59   0   0   0   0   9   0   0   0  72  85  61   0   0   0   0   0  35   0   0   0  77   0   0   0   0   0   0   0   0   0   0   0   0   0  77   0   0   0  60  74  73   0   0   0  31   0   0 
  0   0   0   0   0  87   0  12   0   0   0   0  82  40   0   0   0  83   0   0  15   0   0   0  40   0   0   0   0   0   0  23  34   3   0   0   0   0   0   0   0  79   1   0   0   0   0   0   0   0   0   1   0  49   0   0   0   0   0   0   0   0   0   0   0  11 
 35   0   0   0   0   0  69  30   0   0   0  74   0   0  52   0   0  53   0   0   0   0   0   0   0  78   0  54  90  17  93   0   0   0   0   0   0   0   0   0   0   0  23   0  67   0  20   0  25   0   0  32  29   3   0  96  25   0   0   0   0  28   0   0  65 
  0   0  79   0   0   0   0  72   0   0  89   0   0   0  98   4   0  86  67   0   0   0   0   0  32   0   0   0   0  23  63  83   0  92   0  20   0  64   0   0   0   0   0  45  45   0   0   0   0  77   0   0  49  83  91   0   0   0   0   0   0   0   0   0 
 33   0   0   0   0   0   0   0   0   0   0   0   3   0   0   0   0   0   0   0   0  74   0   0   0   0   0   0   0   4   0   0  79   0   0  34  30   0   0   0   0   0   0   0  18   0   0  42   0   0   0   0  86   0  87   0  43   0  92   0   0  70   0 
  4   0   0   0  62   0   0   0   0   0  84  20   0   0   0   0   0   0   0   0   0   0   0  74   0   0   0  14   0   0   0   0   0   0   0   0   0   0   0   0   0   0   0   0  29   0   0  86   0   0   0  59   0   0   0   0   0   0  22  61   0   0 
  0   0   0   0   0   0  98 100   0   0  20   0   0   0  59   0   0  21  47  21   0  71   2   0   0   0   0   0   0   0   0   0   0   0   0   0   0   0   0  89   0   0   0   0  82   0   0   0   0   0   0   0  29   0   0   0   0  56   0   0   0 
 65   0   0   0  13   0   0   0   0   0   0   0   0   0  48   0   0   0   0  70  88   0   0   0   0   0   0   0   0   0   0   0   0   0   0   0   0   0   0   0   0   0   0  44   0   0   0   0   0   0   0   0   0   0   0   0   0   0  33   0 
 30  52   0   0  82   0   0   0   0   0   0  44  86   0   0   0   0   0   0   0   0   0   0   1   0   0   0   0   0   0   0   0   0  77   0   0   0   0   0   0   0   0   0   0   0   5   0  31   0   0  39  28   0  77   0   0  70  90   0 
  0  82   0   0   0   0   0  50   0   0  56   0   0   0   0   0   0   2  55   0   0   0   0   0   0   0  34  98   0   0   0   0   0   0   0   0   0   0   0   0   0   0  13  91  52   0  94  21   0   0   0   0   0   0   0   0  45   0 
 56   0   0   0   0   0   0  56   0   0   0  45   0   0   0   0   0   0  96   0  25   0   0   0   0   0   0   0   0   0   0   0   0   0   0  14   0  99   0   0  48   0  96   0   0  30   0   0  36   0   0   0   0  65   0   0   0 
  0   0   0  29   0  18   0   0   0   0  49   0  22   0   0   0   0  59  95  20   0  44   0   0   0  88   0   0  81  53   0   0   0   0   0   0   0   0   0  76   0   0  57   0   0   0   0   0   0   0   0   0   0   0   0   0 
  0   0  24   0   0   0  70  57   0   0   0   0   0   0   0   0   0   0   0   0  43   0   0  88  74   0   0  72   0   0   0   0   0   0   0  58   0   0  54   0   0   0   0  43   0   0   0   0   0   0  29   0   0   0  95 
 17   0   0   0   0   0   0   0   0   0   0   0   0   0   0   0   0   0   0  10   0  65   0   0   0   0   0  25   0  61   0  61   0   0   0   0   0   0   0   0   0   0   0  42   0   0   0   0   0   0   0   0  65   0 
  0   0   1   0   0   0   0   0   0   0   6   0  53  43   0  77  38   0   0   3   0   0   0   0   0  19   0   0   0   0   0  79   0  44   0   8   0   0   0   0   0   0  61   0   0   0   0   0  35   0   0   0  83 
 67   0   0   0   0   0   0   0   0   0   0   0  28   0   0   0   0   0   0   0   0   0   0   0   0  10   0   0   0   0  98  60  71   0   0   0   0   0  94   0  72  92   0  23   0  96  39   0   0   0   0   0 
  0  88  92   0   0   0  35   0   0   0   0  69   0  16   0   0   0   0   0   0   9   0 100   0   0   0   0   0  67   0   0  93   0   0   0   0   0   0   0   0   0   0   0   0   0  50  66   0  36  87   0 
  0   0   0   0   0   0   0   0  82   0  61   0   0   0   0  12   0   0   0   0  19   0   0   0   0  95   0  77   0   0   0   0   0   9   0   0   0   0   0   0   0  81  79  70   0  25   0   0   0   0 
 28   0  28   0   0  31  78   0   0   0   0   0   0   0   0  37  38   0  79   0   0   0   0   0   0   0  12   0   0   0  77   0   0   0   0   0   0   0   0   0   0   0   0   0   0  76   0   0   0 
  0   0   0   0  50   0   0  47   0   0  51   0   0  10   0   0  42   0   0   0   0  18   0   0   0  80  32   0   0   0   0   0   0  18   0  56   0   0   0   0   0  51   0  44   0  41   0   0 
  0   0   0   0   0   0   0   0   0   0   0   0   0   0  60   0  30  12   0   0   0   0   0   0   0   0   0   0   0  84   0  18   0   0   0  27   0  82   0   0   0   0   0  81   3  88   0 
  0   0   0   0   0   0   0   0   0   0   0  79  69   0  84  93  34   0   0  70   0   0   0  40   0   0  62   0   0  67  79   0   0   0   0   0   0  52  35  60   0   0   0   0   0   0 
  0  91   5   0   0   0   0   0  16  15  66   0  44   0   0   0  89   0   5   0   0   0  90   0   0   0   0   0   0   0   0   0   0   0  26  69   0   0   0   0   0   0   0   0   0 
  0   0   0   6  91   0   0   0   0  89  46   0   0  86   0   0  95   0   0   0  99  67  65   0  65   0   0  45   0  12   0   0   0  76   1  37   0   0  98   0   0   0   0   0 
 10   0   0   0   0   0   0   0   0 100   0   0   0   0   0  40   0   0   0   0   0   0   0   0   0   0  23   0   0  84  53   0   0   0   0   0   0  58   0   0   0  65  69 
  0   0   0   0  16   0   7   0   0   0   0   0   1   0  70   0   3   0   0  76  14   0   0   0   0   0  21  94   0   5  92  94   0   0  93   0   0   0   0   0  34  35 
  0  16   0   0   0   0   0   0  25   0   0   0  44   0   6   0   0   0   0   0   0   0   0   0  84   0   0  74   0   0   0   0  81   0   0   0   0   0   0  96   0 
  0   0   0   0   0  20   0   0  15  97  55   0   0   0   0  82   0  92   0   0   0   0   0  40   0   0   0   0   0  70   0  60   0   0   0   0  44   0   0  73 
  0  16  56   0   0   0   0   0   0  94   0   0   0   6   0   0  48   0   0   0   0   0   0  26  89   0  93   0   0   0   0   0   0  14  85  61   0   0  74 
  0   0   0  44  24   0   0   0   0   0   0  48   0  70   0  88   0   0  56   0   0   0   0   2   0   0   0   0   0   0   0  56   0   0   0   0   0   0 
  0   0  17   0  72  28   0  91   0   0   0   0  66   0   0   0  81   0   0   0  40   0   0   0   0   0   0  82   0  65   0   0   0  47   0   0   0 
  0  19   0   0   0  42   0   0   0   0   0   0  25   0   0  12   0   0   0   0  59   0   0  10   0   0  61   0   0   0   0   0   0   0   0   0 
  0   0   0   0   0   0   0   0  11   0   0   0   0   0  82   0  36   0   0   0   0   0   0   0   0  25   0   0  78   0   0   0   0   0  43 
  0   0   0  52   0   0   0   0   0   0   0   0   0   0   0   0   0   0  51   0  41   0   0  94   0   0   0   0   0   0   0  62  30  85 
  0   0   0  71   0  71  55   0 100   0   0   0   0   0  64  74   0   0   0   0  85  69  47   1   0   0   0  92   0   0  35   0   0 
  0  90  66  59  83   0  83  23   0   0   0   0   8   0   0  78   0   0   0   0   0  50   0   0  61   0  95   0   0   0   0  38 
  0   0   0   0   0  99   0   0   0   0   0   0   0   0  13   0  82   0   0   0  82   0   0   0  49   0   0   0  78   0   0 
 61   0   0   0   0  18   0   0   0   0   0   2   0   0   0   0  15  34   0   0   0   0   0   0   0   0  78   0  74   0 
 49   0   0  51   0  35   0  34   0   0  40  68  54   0   0   0   0   0   0  36   0  67   0   0   0   0   0   0   0 
  0  17   0  60  35   0   0  92   0  47  38  32  73  45  94   0  44   0   0   0   0  33   0   0   0  58  86  13 
 95   0   0   0   0   0   0   0  32   0   0   0   0  52   0   0  61   0   0   0  39   0   0   0   0  26   0 
  0   0   0   1   0   0   0  38   0   0  71   0  10   0   5  88   0   0   0   0   0   0   0   7  27   0 
 62   0  27   0   0   0   0   0   0   0   0  93   0   0   0   0  87   0  43   0   0   0  42   0   0 
  0   0   0   0  49  26   0  45   0   0   0   0  44  68   0   0   0  93  15   0   0  81   0   0 
  0   0   0   0   0   0  58   0   0   0   0  93   0  10   0   0   0   0   0   0   0   0   0 
  0   0  75   0  46   0   0  62  98   0   0  27   0   0   0  54   0  93  35   0   0   0 
  0  12   0   0   0  20   0   0   0  60   0   0   0   0   0   0   0   0   0  74   0 
  0   0   0  30   0   0   0   0   0  44   0  11  33  74   0   0  56   0   0   0 
  0   0   0   0   0   0  95   0  80   0   0  86   0  93   0   0  82   1   0 
  0   0   0   0   0   0   0   0   0   0  19  85   0   0   0   0   0   0 
  0   0   0   9   0   0  42   0   0  70   0  98   0  79   0   0   5 
  0   0   0  84   0   0   0  65   0   0  20   0  33   0   0   0 
  0  26  60   0  35   0  15  37   0  89   0  12   0  43   0 
 27   0   0   0   0  11   0   0   0  46   0   0  85   0 
  0  79   0   0   0   0   0   0  21  64  67   0   0 
  0   0   0   0   0  79   0   0   0   0   0   0 
  0  84   0   0   0   0   0   0   0  32   0 
  6   0  37   0   0   0   0   0   0   0 
  0   0  69  61   0   0   0   0  11 
  0   0   0   4   0  47   0   0 
  0   0   0   0   0  53   0 
  0   0   0  36   0   0 
 69   0   0  96   0 
  0   0   0   0 
  0  62  23 
 50  69 
  0 

0
466
 31   3  32   8   4  27  43  14  32   4  10  37  23  38   6  25  29  37  43  15  17   1  30  41  14  19   1   9  33  39  31   6  25  12  25  40  18  45  40  46  32   4  40  12  26  17  40   4  40   2  14  29  41  27   1  40  16  16  43  26  46  38  20  46   8  14  24   4  16  36  18  44  18  31  23  10  47  20  14  44  30  39  27   2  25  37   1  38   4  38  43  26  32  14   3  27  29   2  44  45 

Comments

Density             : 25.00 %

